Gurobi Optimizer version 9.1.2 build v9.1.2rc0 (linux64)
Thread count: 36 physical cores, 72 logical processors, using up to 32 threads
Optimize a model with 12 rows, 57 columns and 590 nonzeros
Model fingerprint: 0xf32eec78
Model has 47 quadratic constraints
Coefficient statistics:
  Matrix range     [2e-05, 3e+00]
  QMatrix range    [1e+00, 1e+00]
  QLMatrix range   [1e+00, 1e+00]
  Objective range  [8e-03, 7e-01]
  Bounds range     [1e+00, 1e+00]
  RHS range        [1e+00, 1e+00]
Presolve removed 9 rows and 0 columns

Continuous model is non-convex -- solving as a MIP.

Presolve removed 9 rows and 0 columns
Presolve time: 0.00s
Presolved: 189 rows, 57 columns, 443 nonzeros
Presolved model has 47 bilinear constraint(s)
Variable types: 57 continuous, 0 integer (0 binary)

Root relaxation: objective -1.743721e+00, 44 iterations, 0.00 seconds

    Nodes    |    Current Node    |     Objective Bounds      |     Work
 Expl Unexpl |  Obj  Depth IntInf | Incumbent    BestBd   Gap | It/Node Time

     0     0   -1.74372    0   38          -   -1.74372      -     -    0s
H    0     0                       0.6147548   -1.74372   384%     -    0s
     0     0   -1.64739    0    1    0.61475   -1.64739   368%     -    0s
H    0     0                      -1.6450460   -1.64739  0.14%     -    0s
     0     0     cutoff    0        -1.64505   -1.64505  0.00%     -    0s

Cutting planes:
  RLT: 25
  BQP: 3

Explored 1 nodes (76 simplex iterations) in 0.01 seconds
Thread count was 32 (of 72 available processors)

Solution count 2: -1.64505 0.614755 
No other solutions better than -1.64505

Optimal solution found (tolerance 1.00e-04)
Best objective -1.645045978473e+00, best bound -1.645045978473e+00, gap 0.0000%

User-callback calls 77, time in user-callback 0.00 sec
Gurobi Optimizer version 9.1.2 build v9.1.2rc0 (linux64)
Thread count: 36 physical cores, 72 logical processors, using up to 32 threads
Optimize a model with 60 rows, 312 columns and 16100 nonzeros
Model fingerprint: 0x2794c7ff
Model has 262 quadratic constraints
Coefficient statistics:
  Matrix range     [4e-07, 7e+00]
  QMatrix range    [1e+00, 1e+00]
  QLMatrix range   [1e+00, 1e+00]
  Objective range  [5e-03, 1e+00]
  Bounds range     [1e+00, 1e+00]
  RHS range        [1e+00, 1e+00]
Presolve removed 15 rows and 0 columns

Continuous model is non-convex -- solving as a MIP.

Presolve removed 15 rows and 0 columns
Presolve time: 0.01s
Presolved: 1081 rows, 312 columns, 13447 nonzeros
Presolved model has 262 bilinear constraint(s)
Variable types: 312 continuous, 0 integer (0 binary)

Root relaxation: objective -2.735963e+01, 329 iterations, 0.02 seconds

    Nodes    |    Current Node    |     Objective Bounds      |     Work
 Expl Unexpl |  Obj  Depth IntInf | Incumbent    BestBd   Gap | It/Node Time

     0     0  -27.35963    0  160          -  -27.35963      -     -    0s
     0     0  -25.87753    0   83          -  -25.87753      -     -    0s
     0     0  -25.84590    0   83          -  -25.84590      -     -    0s
     0     0  -25.79616    0   85          -  -25.79616      -     -    0s
     0     0  -25.79440    0   75          -  -25.79440      -     -    0s
     0     0  -25.78737    0   80          -  -25.78737      -     -    0s
     0     0  -25.78354    0   88          -  -25.78354      -     -    0s
     0     0  -25.78309    0   88          -  -25.78309      -     -    0s
     0     0  -25.78108    0   80          -  -25.78108      -     -    0s
     0     0  -25.77937    0   75          -  -25.77937      -     -    0s
     0     0  -25.77885    0   75          -  -25.77885      -     -    0s
     0     0  -25.77807    0   75          -  -25.77807      -     -    0s
     0     0  -25.77781    0   70          -  -25.77781      -     -    0s
     0     0  -25.77740    0   70          -  -25.77740      -     -    0s
     0     0  -25.77731    0   75          -  -25.77731      -     -    0s
H    0     0                     -22.9261576  -25.77731  12.4%     -    0s
     0     2  -25.77731    0   75  -22.92616  -25.77731  12.4%     -    0s
* 1629  1405              54     -22.9268790  -24.63496  7.45%  58.9    1s
* 1677  1550              50     -22.9274625  -24.63496  7.45%  58.0    1s
* 1678  1550              50     -22.9277594  -24.63496  7.45%  57.9    1s
* 1679  1550              49     -22.9278767  -24.63496  7.45%  57.9    1s
* 1988  1828              80     -22.9322115  -24.63496  7.43%  53.0    1s
* 2132  1922              82     -22.9322133  -24.63496  7.43%  51.4    2s
* 2133  1922              82     -22.9322135  -24.63496  7.43%  51.4    2s
* 2134  1922              81     -22.9322137  -24.63496  7.43%  51.3    2s
* 2300  2066              85     -22.9342673  -24.63496  7.42%  49.4    2s
* 2304  2065              86     -22.9343048  -24.63496  7.42%  49.3    2s
* 2602  1957              53     -23.4679999  -24.63496  4.97%  46.2    2s
* 2877  1826              61     -23.9239649  -24.61667  2.90%  44.5    2s
* 4505   606              67     -23.9242069  -24.61667  2.89%  52.3    3s
* 4506   576              67     -23.9242368  -24.61667  2.89%  52.3    3s
* 4507   547              66     -23.9242509  -24.61667  2.89%  52.3    3s
* 4818   623              98     -23.9246833  -24.61667  2.89%  53.0    3s
* 4819   623              98     -23.9247132  -24.61667  2.89%  53.0    3s
* 4918   664             100     -23.9247972  -24.61667  2.89%  53.2    3s
* 5020   709             100     -23.9247982  -24.61667  2.89%  53.3    3s
* 5886  1165              61     -24.1344428  -24.61667  2.00%  52.7    4s
  8258  1519  -24.17061   31   30  -24.13444  -24.61667  2.00%  50.4    5s
* 9515  1698              65     -24.1351966  -24.61667  1.99%  48.4    5s
* 9517  1698              66     -24.1352035  -24.61667  1.99%  48.4    5s
* 9518  1698              66     -24.1352042  -24.61667  1.99%  48.4    5s
*11430  1822              65     -24.1416471  -24.55281  1.70%  45.8    5s
*11433  1822              65     -24.1416736  -24.55281  1.70%  45.8    5s
*11609  1807              66     -24.1418377  -24.44862  1.27%  45.6    5s
*12613  1905              56     -24.1494511  -24.37534  0.94%  44.4    5s
*14237  1755              59     -24.1494513  -24.29994  0.62%  42.4    6s
*14332  1755              68     -24.1506066  -24.29994  0.62%  42.4    6s
*15400  1740              66     -24.1513712  -24.26717  0.48%  41.1    6s
*20247  1819              68     -24.1513827  -24.18901  0.16%  36.7    7s
*20248  1819              68     -24.1513850  -24.18901  0.16%  36.7    7s
*20657  1780              75     -24.1516722  -24.18901  0.15%  36.3    7s
*21277  1780              68     -24.1528881  -24.18901  0.15%  35.8    7s
*21279  1780              69     -24.1528948  -24.18901  0.15%  35.8    7s
*23643  1695              63     -24.1532005  -24.17332  0.08%  34.1    7s
*23644  1695              63     -24.1532076  -24.17332  0.08%  34.1    7s
*23645  1695              62     -24.1532379  -24.17332  0.08%  34.1    7s
*24470  1713              57     -24.1534079  -24.17068  0.07%  33.5    7s
*26163  1692              60     -24.1534741  -24.16748  0.06%  32.3    8s
*26164  1692              60     -24.1534760  -24.16748  0.06%  32.3    8s
*26906  1678              70     -24.1536231  -24.16491  0.05%  31.8    8s
*26907  1678              70     -24.1536240  -24.16491  0.05%  31.8    8s
*29151  1546              63     -24.1536267  -24.16108  0.03%  30.4    8s
*29152  1546              63     -24.1536274  -24.16108  0.03%  30.4    8s
*31360  1451              62     -24.1538965  -24.15882  0.02%  29.2    8s
*31650  1234              66     -24.1539910  -24.15798  0.02%  29.0    9s
*33165   718              67     -24.1540385  -24.15643  0.01%  28.2    9s
*33946   718              69     -24.1540671  -24.15614  0.01%  27.7    9s
*33949   718              69     -24.1540672  -24.15614  0.01%  27.7    9s

Explored 35260 nodes (953574 simplex iterations) in 9.61 seconds
Thread count was 32 (of 72 available processors)

Solution count 10: -24.1541 -24.1541 -24.154 ... -24.1534

Optimal solution found (tolerance 1.00e-04)
Best objective -2.415406718858e+01, best bound -2.415521768545e+01, gap 0.0048%

User-callback calls 71601, time in user-callback 0.01 sec



objective value: -24.15406718858415
objective bound: -24.15521768545384
x_opt: [0.999689535337687, 0.8957120783141314, 0.0, 0.31947042246841195, 0.0, 0.0, 1.0, 0.0, 0.0, 0.0, 1.0, 0.0, 1.0, 1.0, 0.5096754326295849, 1.0, 0.0, 1.0, 0.0, 0.0, 0.0, 0.10599730110505529, 0.0, 0.5328862569124213, 0.0, 0.6020030231916369, 0.0, 1.0, 0.0, 0.0, 1.0, 1.0, 0.0, 0.6505864809038302, 1.0, 0.9512139681734284, 0.0, 1.0, 0.0, 1.0, 1.0, 0.0, 0.8652902507882795, 0.0, 0.0, 0.062083273772343524, 0.3635944081377176, 0.5087075922625811, 0.0017168147155913731, 0.0]
GUROBI solution time: 9.609976053237915




